nK = 2056;
nT = 8;
nI = 21;
L = 29;
TT = 443;
np = 1;
nc = 3;
b = [25, 52, 52, 67, 34, 55, 27, 40, 55, 67, 47, 33, 55, 61, 43, 49, 27, 57, 63, 31, 63];
d = [39, 80, 102, 126, 74, 122, 89, 88, 145, 124, 101, 86, 130, 133, 124, 131, 56, 141, 140, 124, 150];
m = [1.1, 1.2, 1.1, 1, 2.5, 1.1, 1.8, 2.3, 1.2, 1, 1.8, 1.8, 2.5, 2.1, 2.3, 2.1, 2.1, 1.2, 1.9, 2.3, 2.3];
pt = [0.21, 0.28, 0.25, 0.32, 0.32, 0.24, 0.35, 0.24];
st = [11.34, 14.28, 10.25, 17.28, 16.96, 13.68, 15.75, 14.16];
arc = {<1, 0, 1, 1, 0, 0, 0, [1, 1, 1, 1, 1, 1, 1, 1]>, <2, 1, 2, 1, 0, 0, 0, [1, 1, 1, 1, 1, 1, 1, 1]>, <3, 2, 3, 1, 0, 0, 0, [1, 1, 1, 1, 1, 1, 1, 1]>, <4, 3, 4, 1, 0, 0, 0, [1, 1, 1, 1, 1, 1, 1, 1]>, <5, 4, 5, 1, 0, 0, 0, [1, 1, 1, 1, 1, 1, 1, 1]>, <6, 5, 6, 1, 0, 0, 0, [1, 1, 1, 1, 1, 1, 1, 1]>, <7, 6, 7, 1, 0, 0, 0, [1, 1, 1, 1, 1, 1, 1, 1]>, <8, 7, 8, 1, 0, 0, 0, [1, 1, 1, 1, 1, 1, 1, 1]>, <9, 8, 9, 1, 0, 0, 0, [1, 1, 1, 1, 1, 1, 1, 1]>, <10, 9, 10, 1, 0, 0, 0, [1, 1, 1, 1, 1, 1, 1, 1]>, <11, 10, 11, 1, 0, 0, 0, [1, 1, 1, 1, 1, 1, 1, 1]>, <12, 11, 12, 1, 0, 0, 0, [1, 1, 1, 1, 1, 1, 1, 1]>, <13, 12, 13, 1, 0, 0, 0, [1, 1, 1, 1, 1, 1, 1, 1]>, <14, 13, 14, 1, 0, 0, 0, [1, 1, 1, 1, 1, 1, 1, 1]>, <15, 14, 15, 1, 0, 0, 0, [1, 1, 1, 1, 1, 1, 1, 1]>, <16, 15, 16, 1, 0, 0, 0, [1, 1, 1, 1, 1, 1, 1, 1]>, <17, 16, 17, 1, 0, 0, 0, [1, 1, 1, 1, 1, 1, 1, 1]>, <18, 17, 18, 1, 0, 0, 0, [1, 1, 1, 1, 1, 1, 1, 1]>, <19, 18, 19, 1, 0, 0, 0, [1, 1, 1, 1, 1, 1, 1, 1]>, <20, 19, 20, 1, 0, 0, 0, [1, 1, 1, 1, 1, 1, 1, 1]>, <21, 20, 21, 1, 0, 0, 0, [1, 1, 1, 1, 1, 1, 1, 1]>, <22, 21, 22, 1, 0, 0, 0, [1, 1, 1, 1, 1, 1, 1, 1]>, <23, 22, 23, 1, 0, 0, 0, [1, 1, 1, 1, 1, 1, 1, 1]>, <24, 23, 24, 1, 0, 0, 0, [1, 1, 1, 1, 1, 1, 1, 1]>, <25, 24, 25, 1, 0, 0, 0, [1, 1, 1, 1, 1, 1, 1, 1]>, <26, 25, 26, 1, 0, 0, 0, [1, 1, 1, 1, 1, 1, 1, 1]>, <27, 26, 27, 1, 0, 0, 0, [1, 1, 1, 1, 1, 1, 1, 1]>, <28, 27, 28, 1, 0, 0, 0, [1, 1, 1, 1, 1, 1, 1, 1]>, <29, 28, 29, 1, 0, 0, 0, [1, 1, 1, 1, 1, 1, 1, 1]>, <30, 2, 12, 10, 1, 0, 0, [0, 0, 0, 0, 0, 1, 1, 0]>, <31, 3, 13, 10, 1, 0, 0, [0, 0, 0, 0, 0, 1, 1, 0]>, <32, 4, 14, 10, 1, 0, 0, [0, 0, 0, 0, 0, 1, 1, 0]>, <33, 5, 15, 10, 1, 0, 0, [0, 0, 0, 0, 0, 1, 1, 0]>, <34, 10, 20, 10, 1, 0, 0, [0, 0, 0, 0, 0, 1, 1, 0]>, <35, 11, 21, 10, 1, 0, 0, [0, 0, 0, 0, 0, 1, 1, 0]>, <36, 12, 22, 10, 1, 0, 0, [0, 0, 0, 0, 0, 1, 1, 0]>, <37, 14, 24, 10, 1, 0, 0, [0, 0, 0, 0, 0, 1, 1, 0]>, <38, 15, 25, 10, 1, 0, 0, [0, 0, 0, 0, 0, 1, 1, 0]>, <39, 16, 26, 10, 1, 0, 0, [0, 0, 0, 0, 0, 1, 1, 0]>, <40, 17, 27, 10, 1, 0, 0, [0, 0, 0, 0, 0, 1, 1, 0]>, <41, 18, 28, 10, 1, 0, 0, [0, 0, 0, 0, 0, 1, 1, 0]>, <42, 19, 29, 10, 1, 0, 0, [0, 0, 0, 0, 0, 1, 1, 0]>, <43, 1, 12, 11, 2, 0, 0, [0, 0, 0, 0, 1, 1, 0, 0]>, <44, 2, 13, 11, 2, 0, 0, [0, 0, 0, 0, 1, 1, 0, 0]>, <45, 3, 14, 11, 2, 0, 0, [0, 0, 0, 0, 1, 1, 0, 0]>, <46, 4, 15, 11, 2, 0, 0, [0, 0, 0, 0, 1, 1, 0, 0]>, <47, 5, 16, 11, 2, 0, 0, [0, 0, 0, 0, 1, 1, 0, 0]>, <48, 9, 20, 11, 2, 0, 0, [0, 0, 0, 0, 1, 1, 0, 0]>, <49, 10, 21, 11, 2, 0, 0, [0, 0, 0, 0, 1, 1, 0, 0]>, <50, 11, 22, 11, 2, 0, 0, [0, 0, 0, 0, 1, 1, 0, 0]>, <51, 12, 23, 11, 2, 0, 0, [0, 0, 0, 0, 1, 1, 0, 0]>, <52, 13, 24, 11, 2, 0, 0, [0, 0, 0, 0, 1, 1, 0, 0]>, <53, 14, 25, 11, 2, 0, 0, [0, 0, 0, 0, 1, 1, 0, 0]>, <54, 15, 26, 11, 2, 0, 0, [0, 0, 0, 0, 1, 1, 0, 0]>, <55, 16, 27, 11, 2, 0, 0, [0, 0, 0, 0, 1, 1, 0, 0]>, <56, 17, 28, 11, 2, 0, 0, [0, 0, 0, 0, 1, 1, 0, 0]>, <57, 18, 29, 11, 2, 0, 0, [0, 0, 0, 0, 1, 1, 0, 0]>, <58, 4, 12, 8, 3, 0, 0, [0, 1, 1, 0, 0, 0, 0, 0]>, <59, 5, 13, 8, 3, 0, 0, [0, 1, 1, 0, 0, 0, 0, 0]>, <60, 11, 19, 8, 3, 0, 0, [0, 1, 1, 0, 0, 0, 0, 0]>, <61, 12, 20, 8, 3, 0, 0, [0, 1, 1, 0, 0, 0, 0, 0]>, <62, 16, 24, 8, 3, 0, 0, [0, 1, 1, 0, 0, 0, 0, 0]>, <63, 17, 25, 8, 3, 0, 0, [0, 1, 1, 0, 0, 0, 0, 0]>, <64, 18, 26, 8, 3, 0, 0, [0, 1, 1, 0, 0, 0, 0, 0]>, <65, 19, 27, 8, 3, 0, 0, [0, 1, 1, 0, 0, 0, 0, 0]>, <66, 20, 28, 8, 3, 0, 0, [0, 1, 1, 0, 0, 0, 0, 0]>, <67, 3, 12, 9, 4, 1, 0, [0, 1, 1, 0, 0, 0, 0, 0]>, <68, 4, 13, 9, 4, 1, 0, [0, 1, 1, 0, 0, 0, 0, 0]>, <69, 5, 14, 9, 4, 1, 0, [0, 1, 1, 0, 0, 0, 0, 0]>, <70, 11, 20, 9, 4, 1, 0, [0, 1, 1, 0, 0, 0, 0, 0]>, <71, 12, 21, 9, 4, 1, 0, [0, 1, 1, 0, 0, 0, 0, 0]>, <72, 15, 24, 9, 4, 1, 0, [0, 1, 1, 0, 0, 0, 0, 0]>, <73, 16, 25, 9, 4, 1, 0, [0, 1, 1, 0, 0, 0, 0, 0]>, <74, 17, 26, 9, 4, 1, 0, [0, 1, 1, 0, 0, 0, 0, 0]>, <75, 18, 27, 9, 4, 1, 0, [0, 1, 1, 0, 0, 0, 0, 0]>, <76, 19, 28, 9, 4, 1, 0, [0, 1, 1, 0, 0, 0, 0, 0]>, <77, 20, 29, 9, 4, 1, 0, [0, 1, 1, 0, 0, 0, 0, 0]>, <78, 3, 12, 9, 5, 0, 1, [1, 0, 0, 0, 0, 0, 0, 1]>, <79, 4, 13, 9, 5, 0, 1, [1, 0, 0, 0, 0, 0, 0, 1]>, <80, 5, 14, 9, 5, 0, 1, [1, 0, 0, 0, 0, 0, 0, 1]>, <81, 11, 20, 9, 5, 0, 1, [1, 0, 0, 0, 0, 0, 0, 1]>, <82, 12, 21, 9, 5, 0, 1, [1, 0, 0, 0, 0, 0, 0, 1]>, <83, 15, 24, 9, 5, 0, 1, [1, 0, 0, 0, 0, 0, 0, 1]>, <84, 16, 25, 9, 5, 0, 1, [1, 0, 0, 0, 0, 0, 0, 1]>, <85, 17, 26, 9, 5, 0, 1, [1, 0, 0, 0, 0, 0, 0, 1]>, <86, 18, 27, 9, 5, 0, 1, [1, 0, 0, 0, 0, 0, 0, 1]>, <87, 19, 28, 9, 5, 0, 1, [1, 0, 0, 0, 0, 0, 0, 1]>, <88, 20, 29, 9, 5, 0, 1, [1, 0, 0, 0, 0, 0, 0, 1]>, <89, 4, 12, 8, 6, 0, 1, [0, 0, 0, 0, 0, 0, 1, 1]>, <90, 5, 13, 8, 6, 0, 1, [0, 0, 0, 0, 0, 0, 1, 1]>, <91, 11, 19, 8, 6, 0, 1, [0, 0, 0, 0, 0, 0, 1, 1]>, <92, 12, 20, 8, 6, 0, 1, [0, 0, 0, 0, 0, 0, 1, 1]>, <93, 16, 24, 8, 6, 0, 1, [0, 0, 0, 0, 0, 0, 1, 1]>, <94, 17, 25, 8, 6, 0, 1, [0, 0, 0, 0, 0, 0, 1, 1]>, <95, 18, 26, 8, 6, 0, 1, [0, 0, 0, 0, 0, 0, 1, 1]>, <96, 19, 27, 8, 6, 0, 1, [0, 0, 0, 0, 0, 0, 1, 1]>, <97, 20, 28, 8, 6, 0, 1, [0, 0, 0, 0, 0, 0, 1, 1]>, <98, 3, 12, 9, 7, 0, 1, [0, 0, 0, 0, 0, 1, 1, 0]>, <99, 4, 13, 9, 7, 0, 1, [0, 0, 0, 0, 0, 1, 1, 0]>, <100, 5, 14, 9, 7, 0, 1, [0, 0, 0, 0, 0, 1, 1, 0]>, <101, 11, 20, 9, 7, 0, 1, [0, 0, 0, 0, 0, 1, 1, 0]>, <102, 12, 21, 9, 7, 0, 1, [0, 0, 0, 0, 0, 1, 1, 0]>, <103, 15, 24, 9, 7, 0, 1, [0, 0, 0, 0, 0, 1, 1, 0]>, <104, 16, 25, 9, 7, 0, 1, [0, 0, 0, 0, 0, 1, 1, 0]>, <105, 17, 26, 9, 7, 0, 1, [0, 0, 0, 0, 0, 1, 1, 0]>, <106, 18, 27, 9, 7, 0, 1, [0, 0, 0, 0, 0, 1, 1, 0]>, <107, 19, 28, 9, 7, 0, 1, [0, 0, 0, 0, 0, 1, 1, 0]>, <108, 20, 29, 9, 7, 0, 1, [0, 0, 0, 0, 0, 1, 1, 0]>, <109, 1, 12, 11, 8, 0, 0, [0, 0, 0, 1, 1, 0, 0, 0]>, <110, 2, 13, 11, 8, 0, 0, [0, 0, 0, 1, 1, 0, 0, 0]>, <111, 3, 14, 11, 8, 0, 0, [0, 0, 0, 1, 1, 0, 0, 0]>, <112, 4, 15, 11, 8, 0, 0, [0, 0, 0, 1, 1, 0, 0, 0]>, <113, 5, 16, 11, 8, 0, 0, [0, 0, 0, 1, 1, 0, 0, 0]>, <114, 9, 20, 11, 8, 0, 0, [0, 0, 0, 1, 1, 0, 0, 0]>, <115, 10, 21, 11, 8, 0, 0, [0, 0, 0, 1, 1, 0, 0, 0]>, <116, 11, 22, 11, 8, 0, 0, [0, 0, 0, 1, 1, 0, 0, 0]>, <117, 12, 23, 11, 8, 0, 0, [0, 0, 0, 1, 1, 0, 0, 0]>, <118, 13, 24, 11, 8, 0, 0, [0, 0, 0, 1, 1, 0, 0, 0]>, <119, 14, 25, 11, 8, 0, 0, [0, 0, 0, 1, 1, 0, 0, 0]>, <120, 15, 26, 11, 8, 0, 0, [0, 0, 0, 1, 1, 0, 0, 0]>, <121, 16, 27, 11, 8, 0, 0, [0, 0, 0, 1, 1, 0, 0, 0]>, <122, 17, 28, 11, 8, 0, 0, [0, 0, 0, 1, 1, 0, 0, 0]>, <123, 18, 29, 11, 8, 0, 0, [0, 0, 0, 1, 1, 0, 0, 0]>, <124, 1, 12, 11, 9, 0, 0, [0, 1, 1, 0, 0, 0, 0, 0]>, <125, 2, 13, 11, 9, 0, 0, [0, 1, 1, 0, 0, 0, 0, 0]>, <126, 3, 14, 11, 9, 0, 0, [0, 1, 1, 0, 0, 0, 0, 0]>, <127, 4, 15, 11, 9, 0, 0, [0, 1, 1, 0, 0, 0, 0, 0]>, <128, 5, 16, 11, 9, 0, 0, [0, 1, 1, 0, 0, 0, 0, 0]>, <129, 9, 20, 11, 9, 0, 0, [0, 1, 1, 0, 0, 0, 0, 0]>, <130, 10, 21, 11, 9, 0, 0, [0, 1, 1, 0, 0, 0, 0, 0]>, <131, 11, 22, 11, 9, 0, 0, [0, 1, 1, 0, 0, 0, 0, 0]>, <132, 12, 23, 11, 9, 0, 0, [0, 1, 1, 0, 0, 0, 0, 0]>, <133, 13, 24, 11, 9, 0, 0, [0, 1, 1, 0, 0, 0, 0, 0]>, <134, 14, 25, 11, 9, 0, 0, [0, 1, 1, 0, 0, 0, 0, 0]>, <135, 15, 26, 11, 9, 0, 0, [0, 1, 1, 0, 0, 0, 0, 0]>, <136, 16, 27, 11, 9, 0, 0, [0, 1, 1, 0, 0, 0, 0, 0]>, <137, 17, 28, 11, 9, 0, 0, [0, 1, 1, 0, 0, 0, 0, 0]>, <138, 18, 29, 11, 9, 0, 0, [0, 1, 1, 0, 0, 0, 0, 0]>, <139, 4, 12, 8, 10, 0, 0, [0, 0, 0, 1, 1, 0, 0, 0]>, <140, 5, 13, 8, 10, 0, 0, [0, 0, 0, 1, 1, 0, 0, 0]>, <141, 11, 19, 8, 10, 0, 0, [0, 0, 0, 1, 1, 0, 0, 0]>, <142, 12, 20, 8, 10, 0, 0, [0, 0, 0, 1, 1, 0, 0, 0]>, <143, 16, 24, 8, 10, 0, 0, [0, 0, 0, 1, 1, 0, 0, 0]>, <144, 17, 25, 8, 10, 0, 0, [0, 0, 0, 1, 1, 0, 0, 0]>, <145, 18, 26, 8, 10, 0, 0, [0, 0, 0, 1, 1, 0, 0, 0]>, <146, 19, 27, 8, 10, 0, 0, [0, 0, 0, 1, 1, 0, 0, 0]>, <147, 20, 28, 8, 10, 0, 0, [0, 0, 0, 1, 1, 0, 0, 0]>, <148, 4, 12, 8, 11, 0, 1, [0, 0, 1, 1, 0, 0, 0, 0]>, <149, 5, 13, 8, 11, 0, 1, [0, 0, 1, 1, 0, 0, 0, 0]>, <150, 11, 19, 8, 11, 0, 1, [0, 0, 1, 1, 0, 0, 0, 0]>, <151, 12, 20, 8, 11, 0, 1, [0, 0, 1, 1, 0, 0, 0, 0]>, <152, 16, 24, 8, 11, 0, 1, [0, 0, 1, 1, 0, 0, 0, 0]>, <153, 17, 25, 8, 11, 0, 1, [0, 0, 1, 1, 0, 0, 0, 0]>, <154, 18, 26, 8, 11, 0, 1, [0, 0, 1, 1, 0, 0, 0, 0]>, <155, 19, 27, 8, 11, 0, 1, [0, 0, 1, 1, 0, 0, 0, 0]>, <156, 20, 28, 8, 11, 0, 1, [0, 0, 1, 1, 0, 0, 0, 0]>, <157, 4, 11, 7, 12, 0, 0, [0, 0, 0, 0, 0, 1, 1, 0]>, <158, 5, 12, 7, 12, 0, 0, [0, 0, 0, 0, 0, 1, 1, 0]>, <159, 11, 18, 7, 12, 0, 0, [0, 0, 0, 0, 0, 1, 1, 0]>, <160, 12, 19, 7, 12, 0, 0, [0, 0, 0, 0, 0, 1, 1, 0]>, <161, 17, 24, 7, 12, 0, 0, [0, 0, 0, 0, 0, 1, 1, 0]>, <162, 18, 25, 7, 12, 0, 0, [0, 0, 0, 0, 0, 1, 1, 0]>, <163, 19, 26, 7, 12, 0, 0, [0, 0, 0, 0, 0, 1, 1, 0]>, <164, 20, 27, 7, 12, 0, 0, [0, 0, 0, 0, 0, 1, 1, 0]>, <165, 3, 12, 9, 13, 1, 0, [0, 0, 1, 1, 0, 0, 0, 0]>, <166, 4, 13, 9, 13, 1, 0, [0, 0, 1, 1, 0, 0, 0, 0]>, <167, 5, 14, 9, 13, 1, 0, [0, 0, 1, 1, 0, 0, 0, 0]>, <168, 11, 20, 9, 13, 1, 0, [0, 0, 1, 1, 0, 0, 0, 0]>, <169, 12, 21, 9, 13, 1, 0, [0, 0, 1, 1, 0, 0, 0, 0]>, <170, 15, 24, 9, 13, 1, 0, [0, 0, 1, 1, 0, 0, 0, 0]>, <171, 16, 25, 9, 13, 1, 0, [0, 0, 1, 1, 0, 0, 0, 0]>, <172, 17, 26, 9, 13, 1, 0, [0, 0, 1, 1, 0, 0, 0, 0]>, <173, 18, 27, 9, 13, 1, 0, [0, 0, 1, 1, 0, 0, 0, 0]>, <174, 19, 28, 9, 13, 1, 0, [0, 0, 1, 1, 0, 0, 0, 0]>, <175, 20, 29, 9, 13, 1, 0, [0, 0, 1, 1, 0, 0, 0, 0]>, <176, 4, 12, 8, 14, 0, 1, [1, 1, 0, 0, 0, 0, 0, 0]>, <177, 5, 13, 8, 14, 0, 1, [1, 1, 0, 0, 0, 0, 0, 0]>, <178, 11, 19, 8, 14, 0, 1, [1, 1, 0, 0, 0, 0, 0, 0]>, <179, 12, 20, 8, 14, 0, 1, [1, 1, 0, 0, 0, 0, 0, 0]>, <180, 16, 24, 8, 14, 0, 1, [1, 1, 0, 0, 0, 0, 0, 0]>, <181, 17, 25, 8, 14, 0, 1, [1, 1, 0, 0, 0, 0, 0, 0]>, <182, 18, 26, 8, 14, 0, 1, [1, 1, 0, 0, 0, 0, 0, 0]>, <183, 19, 27, 8, 14, 0, 1, [1, 1, 0, 0, 0, 0, 0, 0]>, <184, 20, 28, 8, 14, 0, 1, [1, 1, 0, 0, 0, 0, 0, 0]>, <185, 0, 12, 12, 15, 0, 0, [1, 1, 0, 0, 0, 0, 0, 0]>, <186, 1, 13, 12, 15, 0, 0, [1, 1, 0, 0, 0, 0, 0, 0]>, <187, 2, 14, 12, 15, 0, 0, [1, 1, 0, 0, 0, 0, 0, 0]>, <188, 3, 15, 12, 15, 0, 0, [1, 1, 0, 0, 0, 0, 0, 0]>, <189, 4, 16, 12, 15, 0, 0, [1, 1, 0, 0, 0, 0, 0, 0]>, <190, 5, 17, 12, 15, 0, 0, [1, 1, 0, 0, 0, 0, 0, 0]>, <191, 8, 20, 12, 15, 0, 0, [1, 1, 0, 0, 0, 0, 0, 0]>, <192, 9, 21, 12, 15, 0, 0, [1, 1, 0, 0, 0, 0, 0, 0]>, <193, 10, 22, 12, 15, 0, 0, [1, 1, 0, 0, 0, 0, 0, 0]>, <194, 11, 23, 12, 15, 0, 0, [1, 1, 0, 0, 0, 0, 0, 0]>, <195, 12, 24, 12, 15, 0, 0, [1, 1, 0, 0, 0, 0, 0, 0]>, <196, 13, 25, 12, 15, 0, 0, [1, 1, 0, 0, 0, 0, 0, 0]>, <197, 14, 26, 12, 15, 0, 0, [1, 1, 0, 0, 0, 0, 0, 0]>, <198, 15, 27, 12, 15, 0, 0, [1, 1, 0, 0, 0, 0, 0, 0]>, <199, 16, 28, 12, 15, 0, 0, [1, 1, 0, 0, 0, 0, 0, 0]>, <200, 17, 29, 12, 15, 0, 0, [1, 1, 0, 0, 0, 0, 0, 0]>, <201, 3, 12, 9, 16, 0, 0, [1, 0, 0, 0, 0, 0, 0, 1]>, <202, 4, 13, 9, 16, 0, 0, [1, 0, 0, 0, 0, 0, 0, 1]>, <203, 5, 14, 9, 16, 0, 0, [1, 0, 0, 0, 0, 0, 0, 1]>, <204, 11, 20, 9, 16, 0, 0, [1, 0, 0, 0, 0, 0, 0, 1]>, <205, 12, 21, 9, 16, 0, 0, [1, 0, 0, 0, 0, 0, 0, 1]>, <206, 15, 24, 9, 16, 0, 0, [1, 0, 0, 0, 0, 0, 0, 1]>, <207, 16, 25, 9, 16, 0, 0, [1, 0, 0, 0, 0, 0, 0, 1]>, <208, 17, 26, 9, 16, 0, 0, [1, 0, 0, 0, 0, 0, 0, 1]>, <209, 18, 27, 9, 16, 0, 0, [1, 0, 0, 0, 0, 0, 0, 1]>, <210, 19, 28, 9, 16, 0, 0, [1, 0, 0, 0, 0, 0, 0, 1]>, <211, 20, 29, 9, 16, 0, 0, [1, 0, 0, 0, 0, 0, 0, 1]>, <212, 4, 12, 8, 17, 0, 1, [0, 1, 1, 0, 0, 0, 0, 0]>, <213, 5, 13, 8, 17, 0, 1, [0, 1, 1, 0, 0, 0, 0, 0]>, <214, 11, 19, 8, 17, 0, 1, [0, 1, 1, 0, 0, 0, 0, 0]>, <215, 12, 20, 8, 17, 0, 1, [0, 1, 1, 0, 0, 0, 0, 0]>, <216, 16, 24, 8, 17, 0, 1, [0, 1, 1, 0, 0, 0, 0, 0]>, <217, 17, 25, 8, 17, 0, 1, [0, 1, 1, 0, 0, 0, 0, 0]>, <218, 18, 26, 8, 17, 0, 1, [0, 1, 1, 0, 0, 0, 0, 0]>, <219, 19, 27, 8, 17, 0, 1, [0, 1, 1, 0, 0, 0, 0, 0]>, <220, 20, 28, 8, 17, 0, 1, [0, 1, 1, 0, 0, 0, 0, 0]>, <221, 0, 12, 12, 18, 0, 0, [0, 0, 1, 1, 0, 0, 0, 0]>, <222, 1, 13, 12, 18, 0, 0, [0, 0, 1, 1, 0, 0, 0, 0]>, <223, 2, 14, 12, 18, 0, 0, [0, 0, 1, 1, 0, 0, 0, 0]>, <224, 3, 15, 12, 18, 0, 0, [0, 0, 1, 1, 0, 0, 0, 0]>, <225, 4, 16, 12, 18, 0, 0, [0, 0, 1, 1, 0, 0, 0, 0]>, <226, 5, 17, 12, 18, 0, 0, [0, 0, 1, 1, 0, 0, 0, 0]>, <227, 8, 20, 12, 18, 0, 0, [0, 0, 1, 1, 0, 0, 0, 0]>, <228, 9, 21, 12, 18, 0, 0, [0, 0, 1, 1, 0, 0, 0, 0]>, <229, 10, 22, 12, 18, 0, 0, [0, 0, 1, 1, 0, 0, 0, 0]>, <230, 11, 23, 12, 18, 0, 0, [0, 0, 1, 1, 0, 0, 0, 0]>, <231, 12, 24, 12, 18, 0, 0, [0, 0, 1, 1, 0, 0, 0, 0]>, <232, 13, 25, 12, 18, 0, 0, [0, 0, 1, 1, 0, 0, 0, 0]>, <233, 14, 26, 12, 18, 0, 0, [0, 0, 1, 1, 0, 0, 0, 0]>, <234, 15, 27, 12, 18, 0, 0, [0, 0, 1, 1, 0, 0, 0, 0]>, <235, 16, 28, 12, 18, 0, 0, [0, 0, 1, 1, 0, 0, 0, 0]>, <236, 17, 29, 12, 18, 0, 0, [0, 0, 1, 1, 0, 0, 0, 0]>, <237, 2, 12, 10, 19, 1, 0, [0, 0, 1, 1, 0, 0, 0, 0]>, <238, 3, 13, 10, 19, 1, 0, [0, 0, 1, 1, 0, 0, 0, 0]>, <239, 4, 14, 10, 19, 1, 0, [0, 0, 1, 1, 0, 0, 0, 0]>, <240, 5, 15, 10, 19, 1, 0, [0, 0, 1, 1, 0, 0, 0, 0]>, <241, 10, 20, 10, 19, 1, 0, [0, 0, 1, 1, 0, 0, 0, 0]>, <242, 11, 21, 10, 19, 1, 0, [0, 0, 1, 1, 0, 0, 0, 0]>, <243, 12, 22, 10, 19, 1, 0, [0, 0, 1, 1, 0, 0, 0, 0]>, <244, 14, 24, 10, 19, 1, 0, [0, 0, 1, 1, 0, 0, 0, 0]>, <245, 15, 25, 10, 19, 1, 0, [0, 0, 1, 1, 0, 0, 0, 0]>, <246, 16, 26, 10, 19, 1, 0, [0, 0, 1, 1, 0, 0, 0, 0]>, <247, 17, 27, 10, 19, 1, 0, [0, 0, 1, 1, 0, 0, 0, 0]>, <248, 18, 28, 10, 19, 1, 0, [0, 0, 1, 1, 0, 0, 0, 0]>, <249, 19, 29, 10, 19, 1, 0, [0, 0, 1, 1, 0, 0, 0, 0]>, <250, 4, 11, 7, 20, 0, 1, [0, 0, 0, 0, 0, 1, 1, 0]>, <251, 5, 12, 7, 20, 0, 1, [0, 0, 0, 0, 0, 1, 1, 0]>, <252, 11, 18, 7, 20, 0, 1, [0, 0, 0, 0, 0, 1, 1, 0]>, <253, 12, 19, 7, 20, 0, 1, [0, 0, 0, 0, 0, 1, 1, 0]>, <254, 17, 24, 7, 20, 0, 1, [0, 0, 0, 0, 0, 1, 1, 0]>, <255, 18, 25, 7, 20, 0, 1, [0, 0, 0, 0, 0, 1, 1, 0]>, <256, 19, 26, 7, 20, 0, 1, [0, 0, 0, 0, 0, 1, 1, 0]>, <257, 20, 27, 7, 20, 0, 1, [0, 0, 0, 0, 0, 1, 1, 0]>, <258, 3, 12, 9, 21, 0, 0, [0, 0, 0, 0, 0, 1, 1, 0]>, <259, 4, 13, 9, 21, 0, 0, [0, 0, 0, 0, 0, 1, 1, 0]>, <260, 5, 14, 9, 21, 0, 0, [0, 0, 0, 0, 0, 1, 1, 0]>, <261, 11, 20, 9, 21, 0, 0, [0, 0, 0, 0, 0, 1, 1, 0]>, <262, 12, 21, 9, 21, 0, 0, [0, 0, 0, 0, 0, 1, 1, 0]>, <263, 15, 24, 9, 21, 0, 0, [0, 0, 0, 0, 0, 1, 1, 0]>, <264, 16, 25, 9, 21, 0, 0, [0, 0, 0, 0, 0, 1, 1, 0]>, <265, 17, 26, 9, 21, 0, 0, [0, 0, 0, 0, 0, 1, 1, 0]>, <266, 18, 27, 9, 21, 0, 0, [0, 0, 0, 0, 0, 1, 1, 0]>, <267, 19, 28, 9, 21, 0, 0, [0, 0, 0, 0, 0, 1, 1, 0]>, <268, 20, 29, 9, 21, 0, 0, [0, 0, 0, 0, 0, 1, 1, 0]>};
